p cnf 23 45
1 0
-1 -2 12 0
-1 2 -12 0
1 -2 -12 0
1 2 12 0
-2 3 7 0
-3 2 0
2 -7 0
3 -4 -5 0
-3 4 0
-3 5 0
-4 18 0
-18 4 0
5 6 0
-5 -6 0
6 -20 0
20 -6 0
-7 -8 9 0
7 8 0
7 -9 0
8 -21 0
-8 21 0
-9 10 11 0
9 -10 0
9 -11 0
10 -22 0
-10 22 0
11 4 0
-11 -4 0
-12 13 14 0
12 -13 0
12 -14 0
13 -4 -8 0
-13 4 0
-13 8 0
-14 -11 15 0
14 11 0
14 -15 0
15 -16 -17 0
-15 16 0
-15 17 0
16 -19 0
-16 19 0
17 -23 0
-17 23 0